NAME : TW_40_seed_None_id_2
TYPE : CVRPTW
DIMENSION : 11
EDGE_WEIGHT_TYPE : EUC_2D
CAPACITY : 25
SERVICE_TIME : 100
LATE_COEFF : 0
NODE_COORD_SECTION
1	948	858
2	775	279
3	589	497
4	578	509
5	213	941
6	206	684
7	841	933
8	572	865
9	585	202
10	46	985
11	139	725
DEMAND_SECTION
1	0
2	9
3	3
4	4
5	2
6	6
7	10
8	4
9	10
10	6
11	10
TIME_WINDOW_SECTION
1	0	10000
2	0	1500
3	8104	10000
4	286	2341
5	885	2933
6	865	2891
7	8241	10000
8	2938	4890
9	2631	4620
10	4852	6854
11	1239	3282
DEPOT_SECTION
1
-1
EOF
